<?xml version = "1.0" encoding="UTF-8" standalone="yes"?>
<CPLEXSolution version="1.2">
 <header
   problemName=""
   solutionName="p0"
   solutionIndex="-1"
   objectiveValue="49"
   solutionTypeValue="3"
   solutionTypeString="primal"
   solutionStatusValue="127"
   solutionStatusString="integer feasible solution"
   solutionMethodString="mip"
   primalFeasible="0"
   dualFeasible="0"
   writeLevel="1"/>
 <quality
   epInt="1.0000000000000001e-05"
   epRHS="9.9999999999999995e-07"
   maxIntInfeas="1.1019759549313335e-09"
   maxPrimalInfeas="3.5527136788005009e-15"
   maxX="78"
   maxSlack="32.999999985674307"/>
 <linearConstraints>
  <constraint index="0" slack="-32.999999985674307"/>
  <constraint index="1" slack="0"/>
  <constraint index="2" slack="-18"/>
  <constraint index="3" slack="0"/>
  <constraint index="4" slack="-9.999999999534122"/>
  <constraint index="5" slack="0"/>
  <constraint index="6" slack="-13.999999999999996"/>
  <constraint index="7" slack="0"/>
  <constraint index="8" slack="3.5527136788005009e-15"/>
  <constraint index="9" slack="0"/>
  <constraint index="10" slack="0"/>
  <constraint index="11" slack="0"/>
  <constraint index="12" slack="0"/>
  <constraint index="13" slack="0"/>
  <constraint index="14" slack="0"/>
  <constraint index="15" slack="0"/>
  <constraint index="16" slack="0"/>
  <constraint index="17" slack="0"/>
  <constraint index="18" slack="0"/>
  <constraint index="19" slack="0"/>
  <constraint index="20" slack="0"/>
  <constraint index="21" slack="0"/>
  <constraint index="22" slack="-3.5527136788005009e-15"/>
  <constraint index="23" slack="0"/>
  <constraint index="24" slack="0"/>
  <constraint index="25" slack="0"/>
  <constraint index="26" slack="0"/>
  <constraint index="27" slack="0"/>
  <constraint index="28" slack="0"/>
  <constraint index="29" slack="0"/>
  <constraint index="30" slack="0"/>
  <constraint index="31" slack="0"/>
  <constraint index="32" slack="0"/>
  <constraint index="33" slack="0"/>
  <constraint index="34" slack="0"/>
  <constraint index="35" slack="0"/>
  <constraint index="36" slack="0"/>
  <constraint index="37" slack="0"/>
  <constraint index="38" slack="0"/>
  <constraint index="39" slack="0"/>
  <constraint index="40" slack="-10"/>
  <constraint index="41" slack="0"/>
  <constraint index="42" slack="-21.000000000000004"/>
  <constraint index="43" slack="-15.000000000000004"/>
  <constraint index="44" slack="-31"/>
 </linearConstraints>
 <variables>
  <variable name="x_0_0" index="0" value="1.4325689452626082e-08"/>
  <variable name="x_0_1" index="1" value="34"/>
  <variable name="x_0_2" index="2" value="1.0000000004658749"/>
  <variable name="x_0_3" index="3" value="17.999999999999996"/>
  <variable name="x_0_4" index="4" value="10.999999999999996"/>
  <variable name="x_1_0" index="5" value="34"/>
  <variable name="x_1_1" index="6" value="8"/>
  <variable name="x_1_2" index="7" value="19.999999999999996"/>
  <variable name="x_1_3" index="8" value="27.999999999999996"/>
  <variable name="x_1_4" index="9" value="0"/>
  <variable name="x_2_0" index="10" value="37"/>
  <variable name="x_2_1" index="11" value="39"/>
  <variable name="x_2_2" index="12" value="15.999999999999996"/>
  <variable name="x_2_3" index="13" value="0"/>
  <variable name="x_2_4" index="14" value="7.9999999999999964"/>
  <variable name="z_0_0_1" index="15" value="0.99999999889802405"/>
  <variable name="z_0_0_2" index="16" value="0.99999999983500221"/>
  <variable name="z_0_0_3" index="17" value="1"/>
  <variable name="z_0_0_4" index="18" value="0.99999999920412874"/>
  <variable name="z_0_1_2" index="19" value="-0"/>
  <variable name="z_0_1_3" index="20" value="-0"/>
  <variable name="z_0_1_4" index="21" value="-0"/>
  <variable name="z_0_2_3" index="22" value="1"/>
  <variable name="z_0_2_4" index="23" value="1"/>
  <variable name="z_0_3_4" index="24" value="-0"/>
  <variable name="z_1_0_1" index="25" value="-0"/>
  <variable name="z_1_0_2" index="26" value="-0"/>
  <variable name="z_1_0_3" index="27" value="-0"/>
  <variable name="z_1_0_4" index="28" value="-0"/>
  <variable name="z_1_1_2" index="29" value="1"/>
  <variable name="z_1_1_3" index="30" value="1"/>
  <variable name="z_1_1_4" index="31" value="-0"/>
  <variable name="z_1_2_3" index="32" value="1"/>
  <variable name="z_1_2_4" index="33" value="-0"/>
  <variable name="z_1_3_4" index="34" value="-0"/>
  <variable name="z_2_0_1" index="35" value="1"/>
  <variable name="z_2_0_2" index="36" value="-0"/>
  <variable name="z_2_0_3" index="37" value="-0"/>
  <variable name="z_2_0_4" index="38" value="-0"/>
  <variable name="z_2_1_2" index="39" value="-0"/>
  <variable name="z_2_1_3" index="40" value="-0"/>
  <variable name="z_2_1_4" index="41" value="-0"/>
  <variable name="z_2_2_3" index="42" value="-0"/>
  <variable name="z_2_2_4" index="43" value="-0"/>
  <variable name="z_2_3_4" index="44" value="1"/>
  <variable name="cmax" index="45" value="49"/>
  <variable name="q_0_0_1" index="46" value="44.999999921759709"/>
  <variable name="q_0_0_2" index="47" value="78"/>
  <variable name="q_0_0_3" index="48" value="56.000000014325693"/>
  <variable name="q_0_0_4" index="49" value="65.999999947472503"/>
  <variable name="q_0_1_2" index="50" value="27.999999999534126"/>
  <variable name="q_0_1_3" index="51" value="6.0000000000000036"/>
  <variable name="q_0_1_4" index="52" value="16.000000000000004"/>
  <variable name="q_0_2_3" index="53" value="57.000000000465874"/>
  <variable name="q_0_2_4" index="54" value="67.000000000465874"/>
  <variable name="q_0_3_4" index="55" value="0"/>
  <variable name="q_1_0_1" index="56" value="18"/>
  <variable name="q_1_0_2" index="57" value="6.0000000000000036"/>
  <variable name="q_1_0_3" index="58" value="0"/>
  <variable name="q_1_0_4" index="59" value="26"/>
  <variable name="q_1_1_2" index="60" value="64"/>
  <variable name="q_1_1_3" index="61" value="58"/>
  <variable name="q_1_1_4" index="62" value="0"/>
  <variable name="q_1_2_3" index="63" value="70"/>
  <variable name="q_1_2_4" index="64" value="11.999999999999996"/>
  <variable name="q_1_3_4" index="65" value="19.999999999999996"/>
  <variable name="q_2_0_1" index="66" value="72"/>
  <variable name="q_2_0_2" index="67" value="17.000000000000004"/>
  <variable name="q_2_0_3" index="68" value="33"/>
  <variable name="q_2_0_4" index="69" value="26.000000000000004"/>
  <variable name="q_2_1_2" index="70" value="19.000000000000004"/>
  <variable name="q_2_1_3" index="71" value="35"/>
  <variable name="q_2_1_4" index="72" value="28.000000000000004"/>
  <variable name="q_2_2_3" index="73" value="11.999999999999996"/>
  <variable name="q_2_2_4" index="74" value="5"/>
  <variable name="q_2_3_4" index="75" value="73"/>
 </variables>
</CPLEXSolution>
